*SENSE:Minimize
NAME          The_Whiskas_Problem
ROWS
 N  Total_Cost_of_Ingredients_per_can
 E  PercentagesSum
 G  ProteinRequirement
 G  FatRequirement
 L  FibreRequirement
 L  SaltRequirement
COLUMNS
    Ingr_BEEF  PercentagesSum   1.000000000000e+00
    Ingr_BEEF  ProteinRequirement   2.000000000000e-01
    Ingr_BEEF  FatRequirement   1.000000000000e-01
    Ingr_BEEF  FibreRequirement   5.000000000000e-03
    Ingr_BEEF  SaltRequirement   5.000000000000e-03
    Ingr_BEEF  Total_Cost_of_Ingredients_per_can   8.000000000000e-03
    Ingr_CHICKEN  PercentagesSum   1.000000000000e+00
    Ingr_CHICKEN  ProteinRequirement   1.000000000000e-01
    Ingr_CHICKEN  FatRequirement   8.000000000000e-02
    Ingr_CHICKEN  FibreRequirement   1.000000000000e-03
    Ingr_CHICKEN  SaltRequirement   2.000000000000e-03
    Ingr_CHICKEN  Total_Cost_of_Ingredients_per_can   1.300000000000e-02
    Ingr_GEL  PercentagesSum   1.000000000000e+00
    Ingr_GEL  Total_Cost_of_Ingredients_per_can   1.000000000000e-03
    Ingr_MUTTON  PercentagesSum   1.000000000000e+00
    Ingr_MUTTON  ProteinRequirement   1.500000000000e-01
    Ingr_MUTTON  FatRequirement   1.100000000000e-01
    Ingr_MUTTON  FibreRequirement   3.000000000000e-03
    Ingr_MUTTON  SaltRequirement   7.000000000000e-03
    Ingr_MUTTON  Total_Cost_of_Ingredients_per_can   1.000000000000e-02
    Ingr_RICE  PercentagesSum   1.000000000000e+00
    Ingr_RICE  FatRequirement   1.000000000000e-02
    Ingr_RICE  FibreRequirement   1.000000000000e-01
    Ingr_RICE  SaltRequirement   2.000000000000e-03
    Ingr_RICE  Total_Cost_of_Ingredients_per_can   2.000000000000e-03
    Ingr_WHEAT  PercentagesSum   1.000000000000e+00
    Ingr_WHEAT  ProteinRequirement   4.000000000000e-02
    Ingr_WHEAT  FatRequirement   1.000000000000e-02
    Ingr_WHEAT  FibreRequirement   1.500000000000e-01
    Ingr_WHEAT  SaltRequirement   8.000000000000e-03
    Ingr_WHEAT  Total_Cost_of_Ingredients_per_can   5.000000000000e-03
RHS
    RHS       PercentagesSum   1.000000000000e+02
    RHS       ProteinRequirement   8.000000000000e+00
    RHS       FatRequirement   6.000000000000e+00
    RHS       FibreRequirement   2.000000000000e+00
    RHS       SaltRequirement   4.000000000000e-01
BOUNDS
ENDATA
